p cnf 798 2288
-1 10 0 
1 341 0 
-96 -64 97 0 
-96 64 98 0 
-97 -72 12 0 
-97 72 98 0 
-98 99 0 
-98 143 0 
-99 100 0 
-99 141 0 
-100 101 0 
-100 139 0 
-101 102 0 
-101 137 0 
-102 103 0 
-102 135 0 
-103 104 0 
-103 133 0 
-104 105 0 
-104 131 0 
-105 106 0 
-105 129 0 
-10 -11 12 0 
-10 11 59 0 
-106 107 0 
-106 127 0 
-107 108 0 
-107 125 0 
-108 109 0 
-108 123 0 
-109 110 0 
-109 121 0 
-110 111 0 
-110 119 0 
-111 112 0 
-111 117 0 
-112 113 0 
-112 115 0 
-113 -114 28 0 
-113 -28 114 0 
-115 -116 30 0 
-115 -30 116 0 
-11 4 0 
-117 -118 32 0 
-117 -32 118 0 
-119 -120 34 0 
-119 -34 120 0 
-121 -122 36 0 
-121 -36 122 0 
-123 -124 38 0 
-123 -38 124 0 
-125 -126 40 0 
-125 -40 126 0 
-127 -128 42 0 
-127 -42 128 0 
-129 -130 44 0 
-129 -44 130 0 
-131 -132 46 0 
-131 -46 132 0 
-133 -134 48 0 
-133 -48 134 0 
-135 -136 50 0 
-135 -50 136 0 
-12 13 0 
-12 57 0 
-137 -138 52 0 
-137 -52 138 0 
-139 -140 54 0 
-139 -54 140 0 
-141 -142 56 0 
-141 -56 142 0 
-143 -144 58 0 
-143 -58 144 0 
-145 -146 150 0 
-145 146 341 0 
-13 14 0 
-13 55 0 
-146 -64 147 0 
-146 64 95 0 
-147 -72 0 
-147 72 148 0 
-148 -74 149 0 
-148 74 95 0 
-149 77 0 
-150 -151 12 0 
-150 151 287 0 
-151 -64 152 0 
-151 64 155 0 
-152 -72 0 
-152 72 153 0 
-153 -74 154 0 
-153 74 155 0 
-154 -77 155 0 
-154 77 186 0 
-155 156 0 
-14 15 0 
-14 53 0 
-156 157 0 
-157 158 0 
-158 159 0 
-159 160 0 
-160 161 0 
-161 162 0 
-162 163 0 
-163 164 0 
-163 184 0 
-164 165 0 
-164 182 0 
-165 166 0 
-165 180 0 
-15 16 0 
-15 51 0 
-166 167 0 
-166 178 0 
-167 168 0 
-167 176 0 
-168 169 0 
-168 174 0 
-169 170 0 
-169 172 0 
-170 -171 0 
-172 -173 0 
-174 -175 0 
-16 17 0 
-16 49 0 
-176 -177 0 
-178 -179 0 
-180 -181 0 
-182 -183 0 
-184 -185 0 
-17 18 0 
-17 47 0 
-186 -95 187 0 
-186 95 155 0 
-187 -155 0 
-187 155 188 0 
-188 -189 0 
-188 189 197 0 
-189 184 0 
-189 190 0 
-190 182 0 
-190 191 0 
-191 180 0 
-191 192 0 
-192 178 0 
-192 193 0 
-193 176 0 
-193 194 0 
-194 174 0 
-194 195 0 
-195 172 0 
-195 196 0 
-1 2 6 0 
-18 19 0 
-18 45 0 
-196 171 0 
-197 -198 0 
-197 198 206 0 
-198 184 0 
-198 199 0 
-199 182 0 
-199 200 0 
-200 180 0 
-200 201 0 
-201 178 0 
-201 202 0 
-202 176 0 
-202 203 0 
-203 174 0 
-203 204 0 
-204 170 0 
-204 205 0 
-205 173 0 
-19 20 0 
-19 43 0 
-206 -207 0 
-206 207 214 0 
-207 184 0 
-207 208 0 
-208 182 0 
-208 209 0 
-209 180 0 
-209 210 0 
-210 178 0 
-210 211 0 
-211 176 0 
-211 212 0 
-212 174 0 
-212 213 0 
-213 196 0 
-213 205 0 
-214 -215 0 
-214 215 222 0 
-215 184 0 
-215 216 0 
-20 21 0 
-20 41 0 
-216 182 0 
-216 217 0 
-217 180 0 
-217 218 0 
-218 178 0 
-218 219 0 
-219 176 0 
-219 220 0 
-220 169 0 
-220 221 0 
-221 175 0 
-222 -223 0 
-222 223 229 0 
-223 184 0 
-223 224 0 
-224 182 0 
-224 225 0 
-225 180 0 
-225 226 0 
-21 22 0 
-21 39 0 
-226 178 0 
-226 227 0 
-227 176 0 
-227 228 0 
-228 195 0 
-228 221 0 
-229 -230 0 
-229 230 236 0 
-230 184 0 
-230 231 0 
-231 182 0 
-231 232 0 
-232 180 0 
-232 233 0 
-233 178 0 
-233 234 0 
-234 176 0 
-234 235 0 
-235 204 0 
-235 221 0 
-22 23 0 
-22 37 0 
-236 -237 0 
-236 237 243 0 
-237 184 0 
-237 238 0 
-238 182 0 
-238 239 0 
-239 180 0 
-239 240 0 
-240 178 0 
-240 241 0 
-241 176 0 
-241 242 0 
-242 213 0 
-242 221 0 
-243 -244 0 
-243 244 250 0 
-244 184 0 
-244 245 0 
-245 182 0 
-245 246 0 
-23 24 0 
-23 35 0 
-246 180 0 
-246 247 0 
-247 178 0 
-247 248 0 
-248 168 0 
-248 249 0 
-249 177 0 
-250 -251 0 
-250 251 256 0 
-251 184 0 
-251 252 0 
-252 182 0 
-252 253 0 
-253 180 0 
-253 254 0 
-254 178 0 
-254 255 0 
-255 194 0 
-255 249 0 
-24 25 0 
-24 33 0 
-256 -257 0 
-256 257 262 0 
-257 184 0 
-257 258 0 
-258 182 0 
-258 259 0 
-259 180 0 
-259 260 0 
-260 167 0 
-260 261 0 
-261 179 0 
-262 -263 0 
-262 263 267 0 
-263 184 0 
-263 264 0 
-264 182 0 
-264 265 0 
-265 180 0 
-265 266 0 
-25 26 0 
-25 31 0 
-266 193 0 
-266 261 0 
-267 -268 0 
-267 268 272 0 
-268 184 0 
-268 269 0 
-269 182 0 
-269 270 0 
-270 180 0 
-270 271 0 
-271 202 0 
-271 261 0 
-272 -273 0 
-272 273 277 0 
-273 184 0 
-273 274 0 
-274 182 0 
-274 275 0 
-275 180 0 
-275 276 0 
-26 27 0 
-26 29 0 
-276 211 0 
-276 261 0 
-277 -278 0 
-277 278 282 0 
-278 184 0 
-278 279 0 
-279 182 0 
-279 280 0 
-280 180 0 
-280 281 0 
-281 219 0 
-281 261 0 
-282 -283 0 
-282 283 155 0 
-283 184 0 
-283 284 0 
-284 182 0 
-284 285 0 
-285 180 0 
-285 286 0 
-27 -28 0 
-286 227 0 
-286 261 0 
-287 -288 341 0 
-287 288 388 0 
-288 -64 289 0 
-288 64 189 0 
-289 -72 0 
-289 72 290 0 
-290 -74 291 0 
-290 74 189 0 
-291 -77 189 0 
-291 77 292 0 
-292 -95 293 0 
-292 95 189 0 
-293 155 294 0 
-294 -189 0 
-294 189 295 0 
-295 198 296 0 
-2 -3 0 
-296 -207 0 
-296 207 297 0 
-297 -215 0 
-297 215 298 0 
-298 -223 0 
-298 223 299 0 
-299 -230 0 
-299 230 300 0 
-300 -237 0 
-300 237 301 0 
-301 -244 0 
-301 244 302 0 
-302 -251 0 
-302 251 303 0 
-303 -257 0 
-303 257 304 0 
-304 -263 305 0 
-304 263 337 0 
-305 -306 0 
-306 307 0 
-306 334 0 
-307 308 0 
-307 331 0 
-308 309 0 
-308 328 0 
-309 310 0 
-309 325 0 
-310 311 0 
-310 322 0 
-311 312 0 
-311 319 0 
-312 313 0 
-312 316 0 
-313 -314 315 0 
-313 -315 314 0 
-29 -30 0 
-316 -317 318 0 
-316 -318 317 0 
-319 -320 321 0 
-319 -321 320 0 
-322 -323 324 0 
-322 -324 323 0 
-325 -326 327 0 
-325 -327 326 0 
-328 -329 330 0 
-328 -330 329 0 
-331 -332 333 0 
-331 -333 332 0 
-334 -335 336 0 
-334 -336 335 0 
-31 -32 0 
-337 -268 0 
-337 268 338 0 
-338 -273 0 
-338 273 339 0 
-339 -278 0 
-339 278 340 0 
-340 -283 0 
-340 283 189 0 
-341 342 0 
-341 386 0 
-342 343 0 
-342 384 0 
-343 344 0 
-343 382 0 
-344 345 0 
-344 380 0 
-345 346 0 
-345 378 0 
-346 347 0 
-346 376 0 
-347 348 0 
-347 374 0 
-348 349 0 
-348 372 0 
-349 350 0 
-349 370 0 
-350 351 0 
-350 368 0 
-351 352 0 
-351 366 0 
-352 353 0 
-352 364 0 
-353 354 0 
-353 362 0 
-354 355 0 
-354 360 0 
-355 356 0 
-355 358 0 
-33 -34 0 
-356 -28 357 0 
-356 -357 28 0 
-358 -30 359 0 
-358 -359 30 0 
-360 -32 361 0 
-360 -361 32 0 
-362 -363 34 0 
-362 -34 363 0 
-364 -365 36 0 
-364 -36 365 0 
-366 -367 38 0 
-366 -38 367 0 
-368 -369 40 0 
-368 -40 369 0 
-370 -371 42 0 
-370 -42 371 0 
-372 -373 44 0 
-372 -44 373 0 
-374 -375 46 0 
-374 -46 375 0 
-35 -36 0 
-376 -377 48 0 
-376 -48 377 0 
-378 -379 50 0 
-378 -50 379 0 
-380 -381 52 0 
-380 -52 381 0 
-382 -383 54 0 
-382 -54 383 0 
-384 -385 56 0 
-384 -56 385 0 
-386 -387 58 0 
-386 -58 387 0 
-388 -389 12 0 
-388 389 470 0 
-389 -64 390 0 
-389 64 198 0 
-390 -72 0 
-390 72 391 0 
-391 -74 392 0 
-391 74 198 0 
-392 -77 198 0 
-392 77 393 0 
-393 -95 394 0 
-393 95 198 0 
-394 -155 0 
-394 155 395 0 
-395 -189 396 0 
-395 189 438 0 
-3 -4 5 0 
-3 -5 4 0 
-37 -38 0 
-396 397 0 
-397 398 0 
-397 433 0 
-398 399 0 
-398 428 0 
-399 400 0 
-399 423 0 
-400 401 0 
-400 418 0 
-401 402 0 
-401 413 0 
-402 403 0 
-402 408 0 
-403 404 0 
-403 406 0 
-404 -405 0 
-406 -407 0 
-408 -409 410 0 
-408 -410 409 0 
-410 411 0 
-411 412 0 
-39 -40 0 
-413 -414 415 0 
-413 -415 414 0 
-415 416 0 
-416 417 0 
-418 -419 420 0 
-418 -420 419 0 
-420 421 0 
-421 422 0 
-423 -424 425 0 
-423 -425 424 0 
-425 426 0 
-426 427 0 
-41 -42 0 
-428 -429 430 0 
-428 -430 429 0 
-430 431 0 
-431 432 0 
-433 -434 435 0 
-433 -435 434 0 
-435 436 0 
-436 437 0 
-438 -198 0 
-438 198 439 0 
-439 -207 0 
-439 207 440 0 
-440 -215 441 0 
-440 215 459 0 
-441 442 0 
-442 443 0 
-442 457 0 
-443 444 0 
-443 455 0 
-444 445 0 
-444 454 0 
-445 446 0 
-445 453 0 
-43 -44 0 
-446 447 0 
-446 452 0 
-447 448 0 
-447 451 0 
-448 449 0 
-448 450 0 
-449 -405 412 0 
-449 -412 405 0 
-450 -407 417 0 
-450 -417 407 0 
-451 -409 422 0 
-451 -422 409 0 
-452 -414 427 0 
-452 -427 414 0 
-453 -419 432 0 
-453 -432 419 0 
-454 -424 437 0 
-454 -437 424 0 
-455 -429 456 0 
-455 -456 429 0 
-457 -434 458 0 
-457 -458 434 0 
-459 -223 0 
-459 223 460 0 
-460 -230 0 
-460 230 461 0 
-461 -237 0 
-461 237 462 0 
-462 -244 0 
-462 244 463 0 
-463 -251 0 
-463 251 464 0 
-464 -257 0 
-464 257 465 0 
-465 -263 0 
-465 263 466 0 
-45 -46 0 
-466 -268 0 
-466 268 467 0 
-467 -273 0 
-467 273 468 0 
-468 -278 0 
-468 278 469 0 
-469 -283 0 
-469 283 198 0 
-470 -471 493 0 
-470 471 510 0 
-471 -64 472 0 
-471 64 207 0 
-472 -72 0 
-472 72 473 0 
-473 -74 474 0 
-473 74 207 0 
-474 -77 207 0 
-474 77 475 0 
-475 -95 476 0 
-475 95 207 0 
-476 -155 0 
-476 155 477 0 
-477 -189 478 0 
-477 189 479 0 
-478 -397 0 
-479 -198 0 
-479 198 480 0 
-480 -207 0 
-480 207 481 0 
-481 -215 0 
-481 215 482 0 
-482 -223 0 
-482 223 483 0 
-483 -230 0 
-483 230 484 0 
-484 -237 0 
-484 237 485 0 
-485 -244 0 
-485 244 486 0 
-47 -48 0 
-486 -251 0 
-486 251 487 0 
-487 -257 0 
-487 257 488 0 
-488 -263 0 
-488 263 489 0 
-489 -268 0 
-489 268 490 0 
-490 -273 0 
-490 273 491 0 
-491 -278 0 
-491 278 492 0 
-492 -283 0 
-492 283 207 0 
-493 494 0 
-493 57 0 
-494 495 0 
-494 55 0 
-495 496 0 
-495 53 0 
-496 497 0 
-496 51 0 
-497 498 0 
-497 49 0 
-498 47 0 
-498 499 0 
-499 45 0 
-499 500 0 
-500 43 0 
-500 501 0 
-501 41 0 
-501 502 0 
-502 39 0 
-502 503 0 
-503 37 0 
-503 504 0 
-504 505 0 
-504 509 0 
-505 33 0 
-505 506 0 
-49 -50 0 
-506 31 0 
-506 507 0 
-507 29 0 
-507 508 0 
-508 28 0 
-509 36 0 
-510 -511 341 0 
-510 511 532 0 
-511 -64 512 0 
-511 64 215 0 
-512 -72 0 
-512 72 513 0 
-513 -74 514 0 
-513 74 215 0 
-514 -77 215 0 
-514 77 515 0 
-515 -95 516 0 
-515 95 215 0 
-516 -155 0 
-516 155 517 0 
-517 -189 0 
-517 189 518 0 
-518 -198 0 
-518 198 519 0 
-519 207 520 0 
-520 -215 0 
-520 215 521 0 
-521 -223 0 
-521 223 522 0 
-522 -230 0 
-522 230 523 0 
-523 -237 0 
-523 237 524 0 
-524 -244 0 
-524 244 525 0 
-525 -251 0 
-525 251 526 0 
-51 -52 0 
-526 -257 0 
-526 257 527 0 
-527 -263 0 
-527 263 528 0 
-528 -268 0 
-528 268 529 0 
-529 -273 0 
-529 273 530 0 
-530 -278 0 
-530 278 531 0 
-531 -283 0 
-531 283 215 0 
-532 -533 12 0 
-532 533 555 0 
-533 -64 534 0 
-533 64 223 0 
-534 -72 0 
-534 72 535 0 
-535 -74 536 0 
-535 74 223 0 
-536 -77 223 0 
-536 77 537 0 
-537 -95 538 0 
-537 95 223 0 
-538 -155 0 
-538 155 539 0 
-539 -189 0 
-539 189 540 0 
-540 -198 0 
-540 198 541 0 
-541 -207 0 
-541 207 542 0 
-542 -215 543 0 
-542 215 544 0 
-543 -442 0 
-544 -223 0 
-544 223 545 0 
-545 -230 0 
-545 230 546 0 
-53 -54 0 
-546 -237 0 
-546 237 547 0 
-547 -244 0 
-547 244 548 0 
-548 -251 0 
-548 251 549 0 
-549 -257 0 
-549 257 550 0 
-550 -263 0 
-550 263 551 0 
-551 -268 0 
-551 268 552 0 
-552 -273 0 
-552 273 553 0 
-553 -278 0 
-553 278 554 0 
-554 -283 0 
-554 283 223 0 
-555 -556 12 0 
-555 556 577 0 
-556 -64 557 0 
-556 64 230 0 
-557 -72 0 
-557 72 558 0 
-558 -74 559 0 
-558 74 230 0 
-559 -77 230 0 
-559 77 560 0 
-560 -95 561 0 
-560 95 230 0 
-561 -155 0 
-561 155 562 0 
-562 -189 0 
-562 189 563 0 
-563 -198 0 
-563 198 564 0 
-564 -207 0 
-564 207 565 0 
-565 -215 0 
-565 215 566 0 
-55 -56 0 
-566 223 567 0 
-567 -230 0 
-567 230 568 0 
-568 -237 0 
-568 237 569 0 
-569 -244 0 
-569 244 570 0 
-570 -251 0 
-570 251 571 0 
-571 -257 0 
-571 257 572 0 
-572 -263 0 
-572 263 573 0 
-573 -268 0 
-573 268 574 0 
-574 -273 0 
-574 273 575 0 
-575 -278 0 
-575 278 576 0 
-576 -283 0 
-576 283 230 0 
-577 -578 493 0 
-577 578 599 0 
-578 -64 579 0 
-578 64 237 0 
-579 -72 0 
-579 72 580 0 
-580 -74 581 0 
-580 74 237 0 
-581 -77 237 0 
-581 77 582 0 
-582 -95 583 0 
-582 95 237 0 
-583 -155 0 
-583 155 584 0 
-584 -189 0 
-584 189 585 0 
-585 -198 0 
-585 198 586 0 
-57 -58 0 
-586 -207 0 
-586 207 587 0 
-587 -215 0 
-587 215 588 0 
-588 -223 0 
-588 223 589 0 
-589 230 590 0 
-590 -237 0 
-590 237 591 0 
-591 -244 0 
-591 244 592 0 
-592 -251 0 
-592 251 593 0 
-593 -257 0 
-593 257 594 0 
-594 -263 0 
-594 263 595 0 
-595 -268 0 
-595 268 596 0 
-596 -273 0 
-596 273 597 0 
-597 -278 0 
-597 278 598 0 
-598 -283 0 
-598 283 237 0 
-599 -600 621 0 
-599 600 633 0 
-600 -64 601 0 
-600 64 244 0 
-601 -72 0 
-601 72 602 0 
-602 -74 603 0 
-602 74 244 0 
-603 -77 244 0 
-603 77 604 0 
-604 -95 605 0 
-604 95 244 0 
-605 -155 0 
-605 155 606 0 
-59 -60 62 0 
-59 60 341 0 
-606 -189 0 
-606 189 607 0 
-607 -198 0 
-607 198 608 0 
-608 -207 0 
-608 207 609 0 
-609 -215 0 
-609 215 610 0 
-610 -223 0 
-610 223 611 0 
-611 -230 0 
-611 230 612 0 
-612 237 613 0 
-613 -244 0 
-613 244 614 0 
-614 -251 0 
-614 251 615 0 
-615 -257 0 
-615 257 616 0 
-60 61 0 
-60 6 0 
-616 -263 0 
-616 263 617 0 
-617 -268 0 
-617 268 618 0 
-618 -273 0 
-618 273 619 0 
-619 -278 0 
-619 278 620 0 
-620 -283 0 
-620 283 244 0 
-621 57 0 
-621 622 0 
-622 55 0 
-622 623 0 
-623 53 0 
-623 624 0 
-624 51 0 
-624 625 0 
-625 49 0 
-625 626 0 
-61 8 0 
-626 47 0 
-626 627 0 
-627 45 0 
-627 628 0 
-628 43 0 
-628 629 0 
-629 41 0 
-629 630 0 
-630 39 0 
-630 631 0 
-631 37 0 
-631 632 0 
-632 35 0 
-632 505 0 
-633 -634 12 0 
-633 634 655 0 
-634 -64 635 0 
-634 64 251 0 
-635 -72 0 
-635 72 636 0 
-62 -63 96 0 
-62 63 145 0 
-636 -74 637 0 
-636 74 251 0 
-637 -77 251 0 
-637 77 638 0 
-638 -95 639 0 
-638 95 251 0 
-639 -155 0 
-639 155 640 0 
-640 -189 0 
-640 189 641 0 
-641 -198 0 
-641 198 642 0 
-642 -207 0 
-642 207 643 0 
-643 -215 0 
-643 215 644 0 
-644 -223 0 
-644 223 645 0 
-645 -230 0 
-645 230 646 0 
-63 -64 71 0 
-63 64 77 0 
-646 -237 0 
-646 237 647 0 
-647 244 648 0 
-648 -251 0 
-648 251 649 0 
-649 -257 0 
-649 257 650 0 
-650 -263 0 
-650 263 651 0 
-651 -268 0 
-651 268 652 0 
-652 -273 0 
-652 273 653 0 
-653 -278 0 
-653 278 654 0 
-654 -283 0 
-654 283 251 0 
-655 -656 12 0 
-655 656 677 0 
-64 65 68 0 
-656 -64 657 0 
-656 64 257 0 
-657 -72 0 
-657 72 658 0 
-658 -74 659 0 
-658 74 257 0 
-659 -77 257 0 
-659 77 660 0 
-660 -95 661 0 
-660 95 257 0 
-661 -155 0 
-661 155 662 0 
-662 -189 0 
-662 189 663 0 
-663 -198 0 
-663 198 664 0 
-664 -207 0 
-664 207 665 0 
-665 -215 0 
-665 215 666 0 
-65 -66 0 
-666 -223 0 
-666 223 667 0 
-667 -230 0 
-667 230 668 0 
-668 -237 0 
-668 237 669 0 
-669 -244 0 
-669 244 670 0 
-670 251 671 0 
-671 -257 0 
-671 257 672 0 
-672 -263 0 
-672 263 673 0 
-673 -268 0 
-673 268 674 0 
-674 -273 0 
-674 273 675 0 
-675 -278 0 
-675 278 676 0 
-66 -5 67 0 
-66 -67 5 0 
-676 -283 0 
-676 283 257 0 
-677 -678 341 0 
-677 678 699 0 
-678 -64 679 0 
-678 64 263 0 
-679 -72 0 
-679 72 680 0 
-680 -74 681 0 
-680 74 263 0 
-681 -77 263 0 
-681 77 682 0 
-682 -95 683 0 
-682 95 263 0 
-683 -155 0 
-683 155 684 0 
-684 -189 0 
-684 189 685 0 
-685 -198 0 
-685 198 686 0 
-6 -7 0 
-686 -207 0 
-686 207 687 0 
-687 -215 0 
-687 215 688 0 
-688 -223 0 
-688 223 689 0 
-689 -230 0 
-689 230 690 0 
-690 -237 0 
-690 237 691 0 
-691 -244 0 
-691 244 692 0 
-692 -251 0 
-692 251 693 0 
-693 257 694 0 
-694 -263 0 
-694 263 695 0 
-695 -268 0 
-695 268 696 0 
-68 -69 0 
-696 -273 0 
-696 273 697 0 
-697 -278 0 
-697 278 698 0 
-698 -283 0 
-698 283 263 0 
-699 -700 12 0 
-699 700 722 0 
-700 -64 701 0 
-700 64 268 0 
-701 -72 0 
-701 72 702 0 
-702 -74 703 0 
-702 74 268 0 
-703 -77 268 0 
-703 77 704 0 
-704 -95 705 0 
-704 95 268 0 
-705 -155 0 
-705 155 706 0 
-69 -9 70 0 
-69 -70 9 0 
-706 -189 0 
-706 189 707 0 
-707 -198 0 
-707 198 708 0 
-708 -207 0 
-708 207 709 0 
-709 -215 0 
-709 215 710 0 
-710 -223 0 
-710 223 711 0 
-711 -230 0 
-711 230 712 0 
-712 -237 0 
-712 237 713 0 
-713 -244 0 
-713 244 714 0 
-714 -251 0 
-714 251 715 0 
-715 -257 0 
-715 257 716 0 
-716 -263 717 0 
-716 263 718 0 
-717 306 0 
-718 -268 0 
-718 268 719 0 
-719 -273 0 
-719 273 720 0 
-720 -278 0 
-720 278 721 0 
-721 -283 0 
-721 283 268 0 
-722 -723 12 0 
-722 723 744 0 
-723 -64 724 0 
-723 64 273 0 
-724 -72 0 
-724 72 725 0 
-725 -74 726 0 
-725 74 273 0 
-71 72 73 0 
-726 -77 273 0 
-726 77 727 0 
-727 -95 728 0 
-727 95 273 0 
-728 -155 0 
-728 155 729 0 
-729 -189 0 
-729 189 730 0 
-730 -198 0 
-730 198 731 0 
-731 -207 0 
-731 207 732 0 
-732 -215 0 
-732 215 733 0 
-733 -223 0 
-733 223 734 0 
-734 -230 0 
-734 230 735 0 
-735 -237 0 
-735 237 736 0 
-72 5 0 
-736 -244 0 
-736 244 737 0 
-737 -251 0 
-737 251 738 0 
-738 -257 0 
-738 257 739 0 
-739 -263 0 
-739 263 740 0 
-740 268 741 0 
-741 -273 0 
-741 273 742 0 
-742 -278 0 
-742 278 743 0 
-743 -283 0 
-743 283 273 0 
-744 -745 766 0 
-744 745 778 0 
-745 -64 746 0 
-745 64 278 0 
-73 -74 76 0 
-73 74 77 0 
-746 -72 0 
-746 72 747 0 
-747 -74 748 0 
-747 74 278 0 
-748 -77 278 0 
-748 77 749 0 
-749 -95 750 0 
-749 95 278 0 
-750 -155 0 
-750 155 751 0 
-751 -189 0 
-751 189 752 0 
-752 -198 0 
-752 198 753 0 
-753 -207 0 
-753 207 754 0 
-754 -215 0 
-754 215 755 0 
-755 -223 0 
-755 223 756 0 
-74 68 0 
-74 75 0 
-756 -230 0 
-756 230 757 0 
-757 -237 0 
-757 237 758 0 
-758 -244 0 
-758 244 759 0 
-759 -251 0 
-759 251 760 0 
-760 -257 0 
-760 257 761 0 
-761 -263 0 
-761 263 762 0 
-762 -268 0 
-762 268 763 0 
-763 273 764 0 
-764 -278 0 
-764 278 765 0 
-765 -283 0 
-765 283 278 0 
-75 9 0 
-766 57 0 
-766 767 0 
-767 55 0 
-767 768 0 
-768 53 0 
-768 769 0 
-769 51 0 
-769 770 0 
-770 49 0 
-770 771 0 
-771 47 0 
-771 772 0 
-772 45 0 
-772 773 0 
-773 43 0 
-773 774 0 
-774 41 0 
-774 775 0 
-775 39 0 
-775 776 0 
-76 -77 0 
-76 77 94 0 
-776 37 0 
-776 777 0 
-777 24 0 
-777 509 0 
-778 -779 766 0 
-778 779 341 0 
-779 -64 780 0 
-779 64 283 0 
-780 -72 0 
-780 72 781 0 
-781 -74 782 0 
-781 74 283 0 
-782 -77 283 0 
-782 77 783 0 
-783 -95 784 0 
-783 95 283 0 
-784 -155 0 
-784 155 785 0 
-785 -189 0 
-785 189 786 0 
-7 -9 8 0 
-7 -8 9 0 
-77 78 0 
-786 -198 0 
-786 198 787 0 
-787 -207 0 
-787 207 788 0 
-788 -215 0 
-788 215 789 0 
-789 -223 0 
-789 223 790 0 
-790 -230 0 
-790 230 791 0 
-791 -237 0 
-791 237 792 0 
-792 -244 0 
-792 244 793 0 
-793 -251 0 
-793 251 794 0 
-794 -257 0 
-794 257 795 0 
-795 -263 0 
-795 263 796 0 
-78 79 0 
-796 -268 0 
-796 268 797 0 
-797 -273 0 
-797 273 798 0 
-798 278 0 
-79 80 0 
-80 81 0 
-81 82 0 
-82 83 0 
-83 84 0 
-84 85 0 
-85 86 0 
-86 87 0 
-87 88 0 
-88 89 0 
-89 90 0 
-90 91 0 
-91 92 0 
-92 -93 0 
-94 95 77 0 
-95 93 0 
96 -97 -98 0 
96 -64 -97 0 
96 64 -98 0 
97 -12 -98 0 
97 -72 -12 0 
97 72 -98 0 
98 -99 -143 0 
99 -100 -141 0 
100 -101 -139 0 
101 -102 -137 0 
102 -103 -135 0 
103 -104 -133 0 
104 -105 -131 0 
105 -106 -129 0 
10 -11 -12 0 
10 -12 -59 0 
10 11 -59 0 
106 -107 -127 0 
107 -108 -125 0 
108 -109 -123 0 
109 -110 -121 0 
110 -111 -119 0 
111 -112 -117 0 
112 -113 -115 0 
113 -28 -114 0 
113 28 114 0 
115 -30 -116 0 
115 30 116 0 
11 -4 0 
117 -32 -118 0 
117 32 118 0 
119 -34 -120 0 
119 34 120 0 
121 -36 -122 0 
121 36 122 0 
123 -38 -124 0 
123 38 124 0 
125 -40 -126 0 
125 40 126 0 
127 -42 -128 0 
127 42 128 0 
129 -44 -130 0 
129 44 130 0 
131 -46 -132 0 
131 46 132 0 
133 -48 -134 0 
133 48 134 0 
135 -50 -136 0 
135 50 136 0 
12 -13 -57 0 
137 -52 -138 0 
137 52 138 0 
139 -54 -140 0 
139 54 140 0 
141 -56 -142 0 
141 56 142 0 
143 -58 -144 0 
143 58 144 0 
145 -146 -150 0 
145 -150 -341 0 
145 146 -341 0 
13 -14 -55 0 
146 -147 -95 0 
146 -64 -147 0 
146 64 -95 0 
147 72 -148 0 
148 -149 -95 0 
148 -74 -149 0 
148 74 -95 0 
149 -77 0 
150 -12 -287 0 
150 -151 -12 0 
150 151 -287 0 
151 -152 -155 0 
151 -64 -152 0 
151 64 -155 0 
152 72 -153 0 
153 -154 -155 0 
153 -74 -154 0 
153 74 -155 0 
154 -155 -186 0 
154 -77 -155 0 
154 77 -186 0 
155 -156 0 
14 -15 -53 0 
156 -157 0 
157 -158 0 
158 -159 0 
159 -160 0 
160 -161 0 
161 -162 0 
162 -163 0 
163 -164 -184 0 
164 -165 -182 0 
165 -166 -180 0 
15 -16 -51 0 
166 -167 -178 0 
167 -168 -176 0 
168 -169 -174 0 
169 -170 -172 0 
170 171 0 
172 173 0 
174 175 0 
16 -17 -49 0 
176 177 0 
178 179 0 
180 181 0 
182 183 0 
184 185 0 
17 -18 -47 0 
186 -187 -155 0 
186 -95 -187 0 
186 95 -155 0 
187 155 -188 0 
188 189 -197 0 
189 -190 -184 0 
190 -191 -182 0 
191 -192 -180 0 
192 -193 -178 0 
193 -194 -176 0 
194 -195 -174 0 
195 -196 -172 0 
1 -2 0 
1 -6 0 
18 -19 -45 0 
196 -171 0 
197 198 -206 0 
198 -199 -184 0 
199 -200 -182 0 
200 -201 -180 0 
201 -202 -178 0 
202 -203 -176 0 
203 -204 -174 0 
204 -170 -205 0 
205 -173 0 
19 -20 -43 0 
206 207 -214 0 
207 -208 -184 0 
208 -209 -182 0 
209 -210 -180 0 
210 -211 -178 0 
211 -212 -176 0 
212 -213 -174 0 
213 -196 -205 0 
214 215 -222 0 
215 -216 -184 0 
20 -21 -41 0 
216 -217 -182 0 
217 -218 -180 0 
218 -219 -178 0 
219 -220 -176 0 
220 -169 -221 0 
221 -175 0 
222 223 -229 0 
223 -224 -184 0 
224 -225 -182 0 
225 -226 -180 0 
21 -22 -39 0 
226 -227 -178 0 
227 -228 -176 0 
228 -195 -221 0 
229 230 -236 0 
230 -231 -184 0 
231 -232 -182 0 
232 -233 -180 0 
233 -234 -178 0 
234 -235 -176 0 
235 -204 -221 0 
22 -23 -37 0 
236 237 -243 0 
237 -238 -184 0 
238 -239 -182 0 
239 -240 -180 0 
240 -241 -178 0 
241 -242 -176 0 
242 -213 -221 0 
243 244 -250 0 
244 -245 -184 0 
245 -246 -182 0 
23 -24 -35 0 
246 -247 -180 0 
247 -248 -178 0 
248 -168 -249 0 
249 -177 0 
250 251 -256 0 
251 -252 -184 0 
252 -253 -182 0 
253 -254 -180 0 
254 -255 -178 0 
255 -194 -249 0 
24 -25 -33 0 
256 257 -262 0 
257 -258 -184 0 
258 -259 -182 0 
259 -260 -180 0 
260 -167 -261 0 
261 -179 0 
262 263 -267 0 
263 -264 -184 0 
264 -265 -182 0 
265 -266 -180 0 
25 -26 -31 0 
266 -193 -261 0 
267 268 -272 0 
268 -269 -184 0 
269 -270 -182 0 
270 -271 -180 0 
271 -202 -261 0 
272 273 -277 0 
273 -274 -184 0 
274 -275 -182 0 
275 -276 -180 0 
26 -27 -29 0 
276 -211 -261 0 
277 278 -282 0 
278 -279 -184 0 
279 -280 -182 0 
280 -281 -180 0 
281 -219 -261 0 
282 283 -155 0 
283 -284 -184 0 
284 -285 -182 0 
285 -286 -180 0 
27 28 0 
286 -227 -261 0 
287 -288 -341 0 
287 -341 -388 0 
287 288 -388 0 
288 -289 -189 0 
288 -64 -289 0 
288 64 -189 0 
289 72 -290 0 
290 -291 -189 0 
290 -74 -291 0 
290 74 -189 0 
291 -189 -292 0 
291 -77 -189 0 
291 77 -292 0 
292 -293 -189 0 
292 -95 -293 0 
292 95 -189 0 
293 -294 0 
293 -155 0 
293 155 -294 0 
294 189 -295 0 
295 -296 0 
295 -198 0 
295 198 -296 0 
2 3 0 
296 207 -297 0 
297 215 -298 0 
298 223 -299 0 
299 230 -300 0 
300 237 -301 0 
301 244 -302 0 
302 251 -303 0 
303 257 -304 0 
304 -263 -305 0 
304 -305 -337 0 
304 263 -337 0 
305 306 0 
306 -307 -334 0 
307 -308 -331 0 
308 -309 -328 0 
309 -310 -325 0 
310 -311 -322 0 
311 -312 -319 0 
312 -313 -316 0 
313 -314 -315 0 
313 314 315 0 
29 30 0 
316 -317 -318 0 
316 317 318 0 
319 -320 -321 0 
319 320 321 0 
322 -323 -324 0 
322 323 324 0 
325 -326 -327 0 
325 326 327 0 
328 -329 -330 0 
328 329 330 0 
331 -332 -333 0 
331 332 333 0 
334 -335 -336 0 
334 335 336 0 
31 32 0 
337 268 -338 0 
338 273 -339 0 
339 278 -340 0 
340 283 -189 0 
341 -342 -386 0 
342 -343 -384 0 
343 -344 -382 0 
344 -345 -380 0 
345 -346 -378 0 
346 -347 -376 0 
347 -348 -374 0 
348 -349 -372 0 
349 -350 -370 0 
350 -351 -368 0 
351 -352 -366 0 
352 -353 -364 0 
353 -354 -362 0 
354 -355 -360 0 
355 -356 -358 0 
33 34 0 
356 -28 -357 0 
356 28 357 0 
358 -30 -359 0 
358 30 359 0 
360 -32 -361 0 
360 32 361 0 
362 -34 -363 0 
362 34 363 0 
364 -36 -365 0 
364 36 365 0 
366 -38 -367 0 
366 38 367 0 
368 -40 -369 0 
368 40 369 0 
370 -42 -371 0 
370 42 371 0 
372 -44 -373 0 
372 44 373 0 
374 -46 -375 0 
374 46 375 0 
35 36 0 
376 -48 -377 0 
376 48 377 0 
378 -50 -379 0 
378 50 379 0 
380 -52 -381 0 
380 52 381 0 
382 -54 -383 0 
382 54 383 0 
384 -56 -385 0 
384 56 385 0 
386 -58 -387 0 
386 58 387 0 
388 -12 -470 0 
388 -389 -12 0 
388 389 -470 0 
389 -390 -198 0 
389 -64 -390 0 
389 64 -198 0 
390 72 -391 0 
391 -392 -198 0 
391 -74 -392 0 
391 74 -198 0 
392 -198 -393 0 
392 -77 -198 0 
392 77 -393 0 
393 -394 -198 0 
393 -95 -394 0 
393 95 -198 0 
394 155 -395 0 
395 -189 -396 0 
395 -396 -438 0 
395 189 -438 0 
3 -4 -5 0 
3 4 5 0 
37 38 0 
396 -397 0 
397 -398 -433 0 
398 -399 -428 0 
399 -400 -423 0 
400 -401 -418 0 
401 -402 -413 0 
402 -403 -408 0 
403 -404 -406 0 
404 405 0 
406 407 0 
408 -409 -410 0 
408 409 410 0 
410 -411 0 
411 -412 0 
39 40 0 
413 -414 -415 0 
413 414 415 0 
415 -416 0 
416 -417 0 
418 -419 -420 0 
418 419 420 0 
420 -421 0 
421 -422 0 
423 -424 -425 0 
423 424 425 0 
425 -426 0 
426 -427 0 
41 42 0 
428 -429 -430 0 
428 429 430 0 
430 -431 0 
431 -432 0 
433 -434 -435 0 
433 434 435 0 
435 -436 0 
436 -437 0 
438 198 -439 0 
439 207 -440 0 
440 -215 -441 0 
440 -441 -459 0 
440 215 -459 0 
441 -442 0 
442 -443 -457 0 
443 -444 -455 0 
444 -445 -454 0 
445 -446 -453 0 
43 44 0 
446 -447 -452 0 
447 -448 -451 0 
448 -449 -450 0 
449 -405 -412 0 
449 405 412 0 
450 -407 -417 0 
450 407 417 0 
451 -409 -422 0 
451 409 422 0 
452 -414 -427 0 
452 414 427 0 
453 -419 -432 0 
453 419 432 0 
454 -424 -437 0 
454 424 437 0 
455 -429 -456 0 
455 429 456 0 
457 -434 -458 0 
457 434 458 0 
459 223 -460 0 
460 230 -461 0 
461 237 -462 0 
462 244 -463 0 
463 251 -464 0 
464 257 -465 0 
465 263 -466 0 
45 46 0 
466 268 -467 0 
467 273 -468 0 
468 278 -469 0 
469 283 -198 0 
470 -471 -493 0 
470 -493 -510 0 
470 471 -510 0 
471 -472 -207 0 
471 -64 -472 0 
471 64 -207 0 
472 72 -473 0 
473 -474 -207 0 
473 -74 -474 0 
473 74 -207 0 
474 -207 -475 0 
474 -77 -207 0 
474 77 -475 0 
475 -476 -207 0 
475 -95 -476 0 
475 95 -207 0 
476 155 -477 0 
477 -189 -478 0 
477 -478 -479 0 
477 189 -479 0 
478 397 0 
479 198 -480 0 
480 207 -481 0 
481 215 -482 0 
482 223 -483 0 
483 230 -484 0 
484 237 -485 0 
485 244 -486 0 
47 48 0 
486 251 -487 0 
487 257 -488 0 
488 263 -489 0 
489 268 -490 0 
490 273 -491 0 
491 278 -492 0 
492 283 -207 0 
493 -494 -57 0 
494 -495 -55 0 
495 -496 -53 0 
496 -497 -51 0 
497 -498 -49 0 
498 -499 -47 0 
499 -500 -45 0 
500 -501 -43 0 
501 -502 -41 0 
502 -503 -39 0 
503 -504 -37 0 
504 -505 -509 0 
505 -506 -33 0 
49 50 0 
506 -507 -31 0 
507 -508 -29 0 
508 -28 0 
509 -36 0 
510 -341 -532 0 
510 -511 -341 0 
510 511 -532 0 
511 -512 -215 0 
511 -64 -512 0 
511 64 -215 0 
512 72 -513 0 
513 -514 -215 0 
513 -74 -514 0 
513 74 -215 0 
514 -215 -515 0 
514 -77 -215 0 
514 77 -515 0 
515 -516 -215 0 
515 -95 -516 0 
515 95 -215 0 
516 155 -517 0 
517 189 -518 0 
518 198 -519 0 
519 -520 0 
519 -207 0 
519 207 -520 0 
520 215 -521 0 
521 223 -522 0 
522 230 -523 0 
523 237 -524 0 
524 244 -525 0 
525 251 -526 0 
51 52 0 
526 257 -527 0 
527 263 -528 0 
528 268 -529 0 
529 273 -530 0 
530 278 -531 0 
531 283 -215 0 
532 -12 -555 0 
532 -533 -12 0 
532 533 -555 0 
533 -534 -223 0 
533 -64 -534 0 
533 64 -223 0 
534 72 -535 0 
535 -536 -223 0 
535 -74 -536 0 
535 74 -223 0 
536 -223 -537 0 
536 -77 -223 0 
536 77 -537 0 
537 -538 -223 0 
537 -95 -538 0 
537 95 -223 0 
538 155 -539 0 
539 189 -540 0 
540 198 -541 0 
541 207 -542 0 
542 -215 -543 0 
542 -543 -544 0 
542 215 -544 0 
543 442 0 
544 223 -545 0 
545 230 -546 0 
53 54 0 
546 237 -547 0 
547 244 -548 0 
548 251 -549 0 
549 257 -550 0 
550 263 -551 0 
551 268 -552 0 
552 273 -553 0 
553 278 -554 0 
554 283 -223 0 
555 -12 -577 0 
555 -556 -12 0 
555 556 -577 0 
556 -557 -230 0 
556 -64 -557 0 
556 64 -230 0 
557 72 -558 0 
558 -559 -230 0 
558 -74 -559 0 
558 74 -230 0 
559 -230 -560 0 
559 -77 -230 0 
559 77 -560 0 
560 -561 -230 0 
560 -95 -561 0 
560 95 -230 0 
561 155 -562 0 
562 189 -563 0 
563 198 -564 0 
564 207 -565 0 
565 215 -566 0 
55 56 0 
566 -567 0 
566 -223 0 
566 223 -567 0 
567 230 -568 0 
568 237 -569 0 
569 244 -570 0 
570 251 -571 0 
571 257 -572 0 
572 263 -573 0 
573 268 -574 0 
574 273 -575 0 
575 278 -576 0 
576 283 -230 0 
577 -493 -599 0 
577 -578 -493 0 
577 578 -599 0 
578 -579 -237 0 
578 -64 -579 0 
578 64 -237 0 
579 72 -580 0 
580 -581 -237 0 
580 -74 -581 0 
580 74 -237 0 
581 -237 -582 0 
581 -77 -237 0 
581 77 -582 0 
582 -583 -237 0 
582 -95 -583 0 
582 95 -237 0 
583 155 -584 0 
584 189 -585 0 
585 198 -586 0 
57 58 0 
586 207 -587 0 
587 215 -588 0 
588 223 -589 0 
589 -590 0 
589 -230 0 
589 230 -590 0 
590 237 -591 0 
591 244 -592 0 
592 251 -593 0 
593 257 -594 0 
594 263 -595 0 
595 268 -596 0 
596 273 -597 0 
597 278 -598 0 
598 283 -237 0 
599 -600 -621 0 
599 -621 -633 0 
599 600 -633 0 
600 -601 -244 0 
600 -64 -601 0 
600 64 -244 0 
601 72 -602 0 
602 -603 -244 0 
602 -74 -603 0 
602 74 -244 0 
603 -244 -604 0 
603 -77 -244 0 
603 77 -604 0 
604 -605 -244 0 
604 -95 -605 0 
604 95 -244 0 
605 155 -606 0 
59 -60 -62 0 
59 -62 -341 0 
59 60 -341 0 
606 189 -607 0 
607 198 -608 0 
608 207 -609 0 
609 215 -610 0 
610 223 -611 0 
611 230 -612 0 
612 -613 0 
612 -237 0 
612 237 -613 0 
613 244 -614 0 
614 251 -615 0 
615 257 -616 0 
60 -6 -61 0 
616 263 -617 0 
617 268 -618 0 
618 273 -619 0 
619 278 -620 0 
620 283 -244 0 
621 -622 -57 0 
622 -623 -55 0 
623 -624 -53 0 
624 -625 -51 0 
625 -626 -49 0 
61 -8 0 
626 -627 -47 0 
627 -628 -45 0 
628 -629 -43 0 
629 -630 -41 0 
630 -631 -39 0 
631 -632 -37 0 
632 -505 -35 0 
633 -12 -655 0 
633 -634 -12 0 
633 634 -655 0 
634 -635 -251 0 
634 -64 -635 0 
634 64 -251 0 
635 72 -636 0 
62 -96 -145 0 
62 -63 -96 0 
62 63 -145 0 
636 -637 -251 0 
636 -74 -637 0 
636 74 -251 0 
637 -251 -638 0 
637 -77 -251 0 
637 77 -638 0 
638 -639 -251 0 
638 -95 -639 0 
638 95 -251 0 
639 155 -640 0 
640 189 -641 0 
641 198 -642 0 
642 207 -643 0 
643 215 -644 0 
644 223 -645 0 
645 230 -646 0 
63 -64 -71 0 
63 -71 -77 0 
63 64 -77 0 
646 237 -647 0 
647 -648 0 
647 -244 0 
647 244 -648 0 
648 251 -649 0 
649 257 -650 0 
650 263 -651 0 
651 268 -652 0 
652 273 -653 0 
653 278 -654 0 
654 283 -251 0 
655 -12 -677 0 
655 -656 -12 0 
655 656 -677 0 
64 -65 0 
64 -68 0 
656 -64 -657 0 
656 -657 -257 0 
656 64 -257 0 
657 72 -658 0 
658 -659 -257 0 
658 -74 -659 0 
658 74 -257 0 
659 -257 -660 0 
659 -77 -257 0 
659 77 -660 0 
660 -661 -257 0 
660 -95 -661 0 
660 95 -257 0 
661 155 -662 0 
662 189 -663 0 
663 198 -664 0 
664 207 -665 0 
665 215 -666 0 
65 66 0 
666 223 -667 0 
667 230 -668 0 
668 237 -669 0 
669 244 -670 0 
670 -671 0 
670 -251 0 
670 251 -671 0 
671 257 -672 0 
672 263 -673 0 
673 268 -674 0 
674 273 -675 0 
675 278 -676 0 
66 -5 -67 0 
66 5 67 0 
676 283 -257 0 
677 -341 -699 0 
677 -678 -341 0 
677 678 -699 0 
678 -64 -679 0 
678 -679 -263 0 
678 64 -263 0 
679 72 -680 0 
680 -681 -263 0 
680 -74 -681 0 
680 74 -263 0 
681 -263 -682 0 
681 -77 -263 0 
681 77 -682 0 
682 -683 -263 0 
682 -95 -683 0 
682 95 -263 0 
683 155 -684 0 
684 189 -685 0 
685 198 -686 0 
6 7 0 
686 207 -687 0 
687 215 -688 0 
688 223 -689 0 
689 230 -690 0 
690 237 -691 0 
691 244 -692 0 
692 251 -693 0 
693 -694 0 
693 -257 0 
693 257 -694 0 
694 263 -695 0 
695 268 -696 0 
68 69 0 
696 273 -697 0 
697 278 -698 0 
698 283 -263 0 
699 -12 -722 0 
699 -700 -12 0 
699 700 -722 0 
700 -64 -701 0 
700 -701 -268 0 
700 64 -268 0 
701 72 -702 0 
702 -703 -268 0 
702 -74 -703 0 
702 74 -268 0 
703 -268 -704 0 
703 -77 -268 0 
703 77 -704 0 
704 -705 -268 0 
704 -95 -705 0 
704 95 -268 0 
705 155 -706 0 
69 -9 -70 0 
69 9 70 0 
706 189 -707 0 
707 198 -708 0 
708 207 -709 0 
709 215 -710 0 
710 223 -711 0 
711 230 -712 0 
712 237 -713 0 
713 244 -714 0 
714 251 -715 0 
715 257 -716 0 
716 -263 -717 0 
716 -717 -718 0 
716 263 -718 0 
717 -306 0 
718 268 -719 0 
719 273 -720 0 
720 278 -721 0 
721 283 -268 0 
722 -12 -744 0 
722 -723 -12 0 
722 723 -744 0 
723 -64 -724 0 
723 -724 -273 0 
723 64 -273 0 
724 72 -725 0 
725 -726 -273 0 
725 -74 -726 0 
725 74 -273 0 
71 -73 0 
71 -72 0 
71 72 -73 0 
726 -273 -727 0 
726 -77 -273 0 
726 77 -727 0 
727 -728 -273 0 
727 -95 -728 0 
727 95 -273 0 
728 155 -729 0 
729 189 -730 0 
730 198 -731 0 
731 207 -732 0 
732 215 -733 0 
733 223 -734 0 
734 230 -735 0 
735 237 -736 0 
72 -5 0 
736 244 -737 0 
737 251 -738 0 
738 257 -739 0 
739 263 -740 0 
740 -741 0 
740 -268 0 
740 268 -741 0 
741 273 -742 0 
742 278 -743 0 
743 283 -273 0 
744 -745 -766 0 
744 -766 -778 0 
744 745 -778 0 
745 -64 -746 0 
745 -746 -278 0 
745 64 -278 0 
73 -74 -76 0 
73 -76 -77 0 
73 74 -77 0 
746 72 -747 0 
747 -748 -278 0 
747 -74 -748 0 
747 74 -278 0 
748 -278 -749 0 
748 -77 -278 0 
748 77 -749 0 
749 -750 -278 0 
749 -95 -750 0 
749 95 -278 0 
750 155 -751 0 
751 189 -752 0 
752 198 -753 0 
753 207 -754 0 
754 215 -755 0 
755 223 -756 0 
74 -68 -75 0 
756 230 -757 0 
757 237 -758 0 
758 244 -759 0 
759 251 -760 0 
760 257 -761 0 
761 263 -762 0 
762 268 -763 0 
763 -764 0 
763 -273 0 
763 273 -764 0 
764 278 -765 0 
765 283 -278 0 
75 -9 0 
766 -767 -57 0 
767 -768 -55 0 
768 -769 -53 0 
769 -770 -51 0 
770 -771 -49 0 
771 -772 -47 0 
772 -773 -45 0 
773 -774 -43 0 
774 -775 -41 0 
775 -776 -39 0 
76 77 -94 0 
776 -777 -37 0 
777 -24 -509 0 
778 -766 -341 0 
778 -779 -766 0 
778 779 -341 0 
779 -64 -780 0 
779 -780 -283 0 
779 64 -283 0 
780 72 -781 0 
781 -74 -782 0 
781 -782 -283 0 
781 74 -283 0 
782 -283 -783 0 
782 -77 -283 0 
782 77 -783 0 
783 -784 -283 0 
783 -95 -784 0 
783 95 -283 0 
784 155 -785 0 
785 189 -786 0 
7 -8 -9 0 
7 8 9 0 
77 -78 0 
786 198 -787 0 
787 207 -788 0 
788 215 -789 0 
789 223 -790 0 
790 230 -791 0 
791 237 -792 0 
792 244 -793 0 
793 251 -794 0 
794 257 -795 0 
795 263 -796 0 
78 -79 0 
796 268 -797 0 
797 273 -798 0 
798 -278 0 
79 -80 0 
80 -81 0 
81 -82 0 
82 -83 0 
83 -84 0 
84 -85 0 
85 -86 0 
86 -87 0 
87 -88 0 
88 -89 0 
89 -90 0 
90 -91 0 
91 -92 0 
92 93 0 
94 -77 0 
94 -95 0 
94 95 -77 0 
95 -93 0 
